c *********************************
c * Circuit generated by BenCGen
c *
c * CarryLookaheadBlock_16_16_16_InOutT
c *
c * Ports with 1 gate(s): 2
c * Ports with 2 gate(s): 69
c * Ports with 3 gate(s): 16
c * Ports with 4 gate(s): 12
c * Ports with 5 gate(s): 8
c * Total gates: 107
c *********************************
p cnf 139 415
1 51 0
-1 -51 0
1 -50 0
51 -50 0
-1 -51 50 0
1 17 -52 0
-1 17 52 0
1 -17 52 0
-1 -17 -52 0
1 -68 0
17 -68 0
-1 -17 68 0
2 18 -53 0
-2 18 53 0
2 -18 53 0
-2 -18 -53 0
2 -69 0
18 -69 0
-2 -18 69 0
3 19 -54 0
-3 19 54 0
3 -19 54 0
-3 -19 -54 0
3 -70 0
19 -70 0
-3 -19 70 0
4 20 -55 0
-4 20 55 0
4 -20 55 0
-4 -20 -55 0
4 -71 0
20 -71 0
-4 -20 71 0
5 21 -56 0
-5 21 56 0
5 -21 56 0
-5 -21 -56 0
5 -72 0
21 -72 0
-5 -21 72 0
6 22 -57 0
-6 22 57 0
6 -22 57 0
-6 -22 -57 0
6 -73 0
22 -73 0
-6 -22 73 0
7 23 -58 0
-7 23 58 0
7 -23 58 0
-7 -23 -58 0
7 -74 0
23 -74 0
-7 -23 74 0
8 24 -59 0
-8 24 59 0
8 -24 59 0
-8 -24 -59 0
8 -75 0
24 -75 0
-8 -24 75 0
9 25 -60 0
-9 25 60 0
9 -25 60 0
-9 -25 -60 0
9 -76 0
25 -76 0
-9 -25 76 0
10 26 -61 0
-10 26 61 0
10 -26 61 0
-10 -26 -61 0
10 -77 0
26 -77 0
-10 -26 77 0
11 27 -62 0
-11 27 62 0
11 -27 62 0
-11 -27 -62 0
11 -78 0
27 -78 0
-11 -27 78 0
12 28 -63 0
-12 28 63 0
12 -28 63 0
-12 -28 -63 0
12 -79 0
28 -79 0
-12 -28 79 0
13 29 -64 0
-13 29 64 0
13 -29 64 0
-13 -29 -64 0
13 -80 0
29 -80 0
-13 -29 80 0
14 30 -65 0
-14 30 65 0
14 -30 65 0
-14 -30 -65 0
14 -81 0
30 -81 0
-14 -30 81 0
15 31 -66 0
-15 31 66 0
15 -31 66 0
-15 -31 -66 0
15 -82 0
31 -82 0
-15 -31 82 0
16 32 -67 0
-16 32 67 0
16 -32 67 0
-16 -32 -67 0
16 -83 0
32 -83 0
-16 -32 83 0
50 -100 0
52 -100 0
-50 -52 100 0
50 -101 0
52 -101 0
53 -101 0
-50 -52 -53 101 0
68 -102 0
53 -102 0
-68 -53 102 0
50 -103 0
52 -103 0
53 -103 0
54 -103 0
-50 -52 -53 -54 103 0
68 -104 0
53 -104 0
54 -104 0
-68 -53 -54 104 0
69 -105 0
54 -105 0
-69 -54 105 0
50 -106 0
52 -106 0
53 -106 0
54 -106 0
55 -106 0
-50 -52 -53 -54 -55 106 0
68 -107 0
53 -107 0
54 -107 0
55 -107 0
-68 -53 -54 -55 107 0
69 -108 0
54 -108 0
55 -108 0
-69 -54 -55 108 0
70 -109 0
55 -109 0
-70 -55 109 0
-68 84 0
-100 84 0
68 100 -84 0
-69 85 0
-101 85 0
-102 85 0
69 101 102 -85 0
-70 86 0
-103 86 0
-104 86 0
-105 86 0
70 103 104 105 -86 0
-71 87 0
-106 87 0
-107 87 0
-108 87 0
-109 87 0
71 106 107 108 109 -87 0
87 -110 0
56 -110 0
-87 -56 110 0
87 -111 0
56 -111 0
57 -111 0
-87 -56 -57 111 0
72 -112 0
57 -112 0
-72 -57 112 0
87 -113 0
56 -113 0
57 -113 0
58 -113 0
-87 -56 -57 -58 113 0
72 -114 0
57 -114 0
58 -114 0
-72 -57 -58 114 0
73 -115 0
58 -115 0
-73 -58 115 0
87 -116 0
56 -116 0
57 -116 0
58 -116 0
59 -116 0
-87 -56 -57 -58 -59 116 0
72 -117 0
57 -117 0
58 -117 0
59 -117 0
-72 -57 -58 -59 117 0
73 -118 0
58 -118 0
59 -118 0
-73 -58 -59 118 0
74 -119 0
59 -119 0
-74 -59 119 0
-72 88 0
-110 88 0
72 110 -88 0
-73 89 0
-111 89 0
-112 89 0
73 111 112 -89 0
-74 90 0
-113 90 0
-114 90 0
-115 90 0
74 113 114 115 -90 0
-75 91 0
-116 91 0
-117 91 0
-118 91 0
-119 91 0
75 116 117 118 119 -91 0
91 -120 0
60 -120 0
-91 -60 120 0
91 -121 0
60 -121 0
61 -121 0
-91 -60 -61 121 0
76 -122 0
61 -122 0
-76 -61 122 0
91 -123 0
60 -123 0
61 -123 0
62 -123 0
-91 -60 -61 -62 123 0
76 -124 0
61 -124 0
62 -124 0
-76 -61 -62 124 0
77 -125 0
62 -125 0
-77 -62 125 0
91 -126 0
60 -126 0
61 -126 0
62 -126 0
63 -126 0
-91 -60 -61 -62 -63 126 0
76 -127 0
61 -127 0
62 -127 0
63 -127 0
-76 -61 -62 -63 127 0
77 -128 0
62 -128 0
63 -128 0
-77 -62 -63 128 0
78 -129 0
63 -129 0
-78 -63 129 0
-76 92 0
-120 92 0
76 120 -92 0
-77 93 0
-121 93 0
-122 93 0
77 121 122 -93 0
-78 94 0
-123 94 0
-124 94 0
-125 94 0
78 123 124 125 -94 0
-79 95 0
-126 95 0
-127 95 0
-128 95 0
-129 95 0
79 126 127 128 129 -95 0
95 -130 0
64 -130 0
-95 -64 130 0
95 -131 0
64 -131 0
65 -131 0
-95 -64 -65 131 0
80 -132 0
65 -132 0
-80 -65 132 0
95 -133 0
64 -133 0
65 -133 0
66 -133 0
-95 -64 -65 -66 133 0
80 -134 0
65 -134 0
66 -134 0
-80 -65 -66 134 0
81 -135 0
66 -135 0
-81 -66 135 0
95 -136 0
64 -136 0
65 -136 0
66 -136 0
67 -136 0
-95 -64 -65 -66 -67 136 0
80 -137 0
65 -137 0
66 -137 0
67 -137 0
-80 -65 -66 -67 137 0
81 -138 0
66 -138 0
67 -138 0
-81 -66 -67 138 0
82 -139 0
67 -139 0
-82 -67 139 0
-80 96 0
-130 96 0
80 130 -96 0
-81 97 0
-131 97 0
-132 97 0
81 131 132 -97 0
-82 98 0
-133 98 0
-134 98 0
-135 98 0
82 133 134 135 -98 0
-83 99 0
-136 99 0
-137 99 0
-138 99 0
-139 99 0
83 136 137 138 139 -99 0
52 50 -33 0
-52 50 33 0
52 -50 33 0
-52 -50 -33 0
53 84 -34 0
-53 84 34 0
53 -84 34 0
-53 -84 -34 0
54 85 -35 0
-54 85 35 0
54 -85 35 0
-54 -85 -35 0
55 86 -36 0
-55 86 36 0
55 -86 36 0
-55 -86 -36 0
56 87 -37 0
-56 87 37 0
56 -87 37 0
-56 -87 -37 0
57 88 -38 0
-57 88 38 0
57 -88 38 0
-57 -88 -38 0
58 89 -39 0
-58 89 39 0
58 -89 39 0
-58 -89 -39 0
59 90 -40 0
-59 90 40 0
59 -90 40 0
-59 -90 -40 0
60 91 -41 0
-60 91 41 0
60 -91 41 0
-60 -91 -41 0
61 92 -42 0
-61 92 42 0
61 -92 42 0
-61 -92 -42 0
62 93 -43 0
-62 93 43 0
62 -93 43 0
-62 -93 -43 0
63 94 -44 0
-63 94 44 0
63 -94 44 0
-63 -94 -44 0
64 95 -45 0
-64 95 45 0
64 -95 45 0
-64 -95 -45 0
65 96 -46 0
-65 96 46 0
65 -96 46 0
-65 -96 -46 0
66 97 -47 0
-66 97 47 0
66 -97 47 0
-66 -97 -47 0
67 98 -48 0
-67 98 48 0
67 -98 48 0
-67 -98 -48 0
99 -49 0
-99 49 0
